p cnf 10 50
-7 6 5 0
-2 -1 -3 0
2 -3 -9 0
-1 4 -7 0
-8 6 9 0
3 6 -8 0
-6 -3 -9 0
7 3 -9 0
5 9 10 0
-10 -2 -1 0
9 -5 -7 0
6 -10 -5 0
-4 7 -6 0
7 -8 9 0
-1 4 10 0
3 -4 -9 0
3 -1 4 0
6 7 9 0
5 -9 -10 0
-1 7 -4 0
-3 8 5 0
-10 6 -3 0
-4 -7 8 0
-5 6 8 0
6 5 7 0
-2 -9 7 0
1 -10 -3 0
-5 -10 8 0
6 8 10 0
8 2 -9 0
7 6 10 0
-7 -1 2 0
-1 -4 -3 0
-9 -6 3 0
-3 -9 -6 0
1 10 -9 0
9 1 3 0
10 -4 9 0
3 5 9 0
-6 9 1 0
-1 -6 -7 0
-4 8 1 0
9 -7 -6 0
-4 -1 2 0
-1 6 10 0
-6 8 4 0
6 4 9 0
7 -9 -8 0
-10 -2 -6 0
-8 2 -4 0